NAME : amz0009.105489_102489.tour
COMMENT : Cost = 105489_102489
COMMENT : Found by LKH-AMZ [Keld Helsgaun] Sun May 11 12:11:09 2025
COMMENT : TW viol.: 0 #: 0
TYPE : TOUR
DIMENSION : 113
TOUR_SECTION
69
80
75
18
47
33
2
74
81
61
29
23
106
41
22
30
54
60
1
14
16
13
36
113
85
83
63
87
59
38
58
95
112
92
26
82
28
84
19
107
51
8
55
50
25
90
52
32
12
24
56
27
111
7
91
79
89
101
6
66
73
110
102
105
37
77
11
21
20
97
40
39
72
76
48
15
86
5
99
57
94
100
46
62
71
4
88
44
64
70
53
98
67
93
49
10
17
68
35
3
42
104
65
103
109
45
9
78
43
96
31
108
34
-1
EOF
